min: c;

c = 3.66229909806977 * u1_t7_h4 + 3.23576560529748 * u1_t7_h5 + 3.57135646700725 * u1_t5_h6 + 3.57135646700725 * u1_t7_h6 + 3.6540916986923 * u1_t5_h7 + 3.6540916986923 * u1_t7_h7 + 3.6540916986923 * u1_t9_h7 + 5.01082579597824 * u1_t5_h8 + 5.01082579597824 * u1_t7_h8 + 5.01082579597824 * u1_t9_h8 + 5.01082579597824 * u1_t10_h8 + 4.81437261931057 * u1_t5_h9 + 4.81437261931057 * u1_t7_h9 + 4.81437261931057 * u1_t9_h9 + 4.81437261931057 * u1_t10_h9 + 5.50655696179536 * u1_t5_h10 + 5.50655696179536 * u1_t7_h10 + 5.50655696179536 * u1_t9_h10 + 5.50655696179536 * u1_t10_h10 + 4.30532398455938 * u1_t5_h11 + 4.30532398455938 * u1_t9_h11 + 4.30532398455938 * u1_t10_h11 + 5.84725104971565 * u1_t4_h12 + 5.84725104971565 * u1_t5_h12 + 5.84725104971565 * u1_t8_h12 + 5.84725104971565 * u1_t9_h12 + 5.84725104971565 * u1_t10_h12 + 4.31038989729462 * u1_t4_h13 + 4.31038989729462 * u1_t8_h13 + 4.31038989729462 * u1_t9_h13 + 4.31038989729462 * u1_t10_h13 + 4.95487036867434 * u1_t4_h14 + 4.95487036867434 * u1_t8_h14 + 4.95487036867434 * u1_t9_h14 + 4.95487036867434 * u1_t10_h14 + 6.33427204049809 * u1_t4_h15 + 6.33427204049809 * u1_t8_h15 + 5.86110680161772 * u1_t4_h16 + 5.86110680161772 * u1_t8_h16 + 5.88678624909748 * u1_t4_h17 + 5.88678624909748 * u1_t8_h17 + 6.32435795812129 * u1_t2_h18 + 6.32435795812129 * u1_t4_h18 + 6.32435795812129 * u1_t6_h18 + 6.32435795812129 * u1_t8_h18 + 5.86814685315291 * u1_t2_h19 + 5.86814685315291 * u1_t3_h19 + 5.86814685315291 * u1_t4_h19 + 5.86814685315291 * u1_t6_h19 + 5.47355172862004 * u1_t1_h20 + 5.47355172862004 * u1_t2_h20 + 5.47355172862004 * u1_t3_h20 + 5.47355172862004 * u1_t4_h20 + 5.47355172862004 * u1_t6_h20 + 5.5935682483188 * u1_t1_h21 + 5.5935682483188 * u1_t2_h21 + 5.5935682483188 * u1_t3_h21 + 5.89200502972277 * u1_t1_h22 + 5.89200502972277 * u1_t2_h22 + 4.96980910226514 * u1_t1_h23 + 4.96980910226514 * u1_t2_h23;
0 <= u1_t1_h20 <= 1;
0 <= u1_t1_h21 <= 1;
0 <= u1_t1_h22 <= 1;
0 <= u1_t1_h23 <= 1;
u1_t1_h20 + u1_t1_h21 + u1_t1_h22 + u1_t1_h23 = 1;
0 <= u1_t2_h18 <= 1;
0 <= u1_t2_h19 <= 1;
0 <= u1_t2_h20 <= 1;
0 <= u1_t2_h21 <= 1;
0 <= u1_t2_h22 <= 1;
0 <= u1_t2_h23 <= 1;
u1_t2_h18 + u1_t2_h19 + u1_t2_h20 + u1_t2_h21 + u1_t2_h22 + u1_t2_h23 = 2;
0 <= u1_t3_h19 <= 1;
0 <= u1_t3_h20 <= 1;
0 <= u1_t3_h21 <= 1;
u1_t3_h19 + u1_t3_h20 + u1_t3_h21 = 1;
0 <= u1_t4_h12 <= 1;
0 <= u1_t4_h13 <= 1;
0 <= u1_t4_h14 <= 1;
0 <= u1_t4_h15 <= 1;
0 <= u1_t4_h16 <= 1;
0 <= u1_t4_h17 <= 1;
0 <= u1_t4_h18 <= 1;
0 <= u1_t4_h19 <= 1;
0 <= u1_t4_h20 <= 1;
u1_t4_h12 + u1_t4_h13 + u1_t4_h14 + u1_t4_h15 + u1_t4_h16 + u1_t4_h17 + u1_t4_h18 + u1_t4_h19 + u1_t4_h20 = 3;
0 <= u1_t5_h6 <= 1;
0 <= u1_t5_h7 <= 1;
0 <= u1_t5_h8 <= 1;
0 <= u1_t5_h9 <= 1;
0 <= u1_t5_h10 <= 1;
0 <= u1_t5_h11 <= 1;
0 <= u1_t5_h12 <= 1;
u1_t5_h6 + u1_t5_h7 + u1_t5_h8 + u1_t5_h9 + u1_t5_h10 + u1_t5_h11 + u1_t5_h12 = 3;
0 <= u1_t6_h18 <= 1;
0 <= u1_t6_h19 <= 1;
0 <= u1_t6_h20 <= 1;
u1_t6_h18 + u1_t6_h19 + u1_t6_h20 = 2;
0 <= u1_t7_h4 <= 1;
0 <= u1_t7_h5 <= 1;
0 <= u1_t7_h6 <= 1;
0 <= u1_t7_h7 <= 1;
0 <= u1_t7_h8 <= 1;
0 <= u1_t7_h9 <= 1;
0 <= u1_t7_h10 <= 1;
u1_t7_h4 + u1_t7_h5 + u1_t7_h6 + u1_t7_h7 + u1_t7_h8 + u1_t7_h9 + u1_t7_h10 = 2;
0 <= u1_t8_h12 <= 1;
0 <= u1_t8_h13 <= 1;
0 <= u1_t8_h14 <= 1;
0 <= u1_t8_h15 <= 1;
0 <= u1_t8_h16 <= 1;
0 <= u1_t8_h17 <= 1;
0 <= u1_t8_h18 <= 1;
u1_t8_h12 + u1_t8_h13 + u1_t8_h14 + u1_t8_h15 + u1_t8_h16 + u1_t8_h17 + u1_t8_h18 = 2;
0 <= u1_t9_h7 <= 1;
0 <= u1_t9_h8 <= 1;
0 <= u1_t9_h9 <= 1;
0 <= u1_t9_h10 <= 1;
0 <= u1_t9_h11 <= 1;
0 <= u1_t9_h12 <= 1;
0 <= u1_t9_h13 <= 1;
0 <= u1_t9_h14 <= 1;
u1_t9_h7 + u1_t9_h8 + u1_t9_h9 + u1_t9_h10 + u1_t9_h11 + u1_t9_h12 + u1_t9_h13 + u1_t9_h14 = 3;
0 <= u1_t10_h8 <= 1;
0 <= u1_t10_h9 <= 1;
0 <= u1_t10_h10 <= 1;
0 <= u1_t10_h11 <= 1;
0 <= u1_t10_h12 <= 1;
0 <= u1_t10_h13 <= 1;
0 <= u1_t10_h14 <= 1;
u1_t10_h8 + u1_t10_h9 + u1_t10_h10 + u1_t10_h11 + u1_t10_h12 + u1_t10_h13 + u1_t10_h14 = 3;
